(declare-fun c_ack!36 () (_ BitVec 64))
(declare-fun a_ack!37 () (_ BitVec 32))
(declare-fun FPCHECK_FSUB_OVERFLOW ((_ BitVec 64) (_ BitVec 64)) Bool)
(assert (not (fp.leq ((_ to_fp 11 53) c_ack!36) ((_ to_fp 11 53) #xbff0000000000000))))
(assert (not (bvslt a_ack!37 #xffffffff)))
(assert (not (= #xffffffff a_ack!37)))
(assert (= #x00000000 a_ack!37))
(assert (not (fp.leq ((_ to_fp 11 53) c_ack!36) ((_ to_fp 11 53) #xbff0000000000000))))
(assert (not (fp.lt ((_ to_fp 11 53) c_ack!36) ((_ to_fp 11 53) #x3ff0000000000000))))
(assert (not (fp.eq ((_ to_fp 11 53) c_ack!36) ((_ to_fp 11 53) #x3ff0000000000000))))
(assert (FPCHECK_FSUB_OVERFLOW c_ack!36 #x3ff0000000000000))

(check-sat)
(exit)
